\ Model matlab
\ LP format - for model browsing. Use MPS format to capture full model detail.
Minimize
  C0
Subject To
 R0: - C0 + C1 <= -3.906572545038459
 R1: - C0 + C2 <= -46.75447614294872
 R2: - C0 + C3 <= -18.64284377354956
 R3: - C0 + C4 <= -20.82319446088939
 R4: C2 - C3 - 90.12708692242613 C5 <= -19.43261919297973
 R5: - C2 + C3 + 90.12708692242613 C5 <= 102.896585885136
 R6: - C1 <= 0
 R7: - C2 <= 0
 R8: - C3 <= 0
 R9: - C4 <= 0
Bounds
Binaries
 C5
End
